echo both
package omp 2 
suffix omp 

log ./Thermalconductivity.txt 

units metal 
dimension 3 
boundary p p p

#----------parameters----------- 
variable T0 equal 300 #(The temperature should be adjusted by trial and errors)
#variable Engvol equal ... (xhi-xlo)*(yhi-ylo)*(zhi-zlo)
variable eqNPT equal 100000 #(No. of total increment for equilibrium NPT run) 
variable timeicrt equal 0.001 # (Time increment)
variable TH equal 320 
variable TC equal 280 
variable Td equal 10 
variable DT equal (${Td}*${timeicrt}) #for temperature damping by NPT 

#-------atom_style-------- 
atom_style full
neighbor 2.0 nsq 
read_data  ./Tetracosane_Graphene_mixture.data

#--------layers-------- 
region 1 block INF 5 INF INF INF INF  units box 
region hot block 5 25 INF INF INF INF  units box
region 2 block  25 32 INF INF INF INF  units box
region 3 block  31 38 INF INF INF INF units box
region 4 block 37 44 INF INF INF INF units box
region 5 block 43 50 INF INF INF INF units box
region 6 block 49 56 INF INF INF INF units box
region 7 block 55 65 INF INF INF INF units box
region 8 block 64 74 INF INF INF INF units box
region 9 block 73 80 INF INF INF INF units box
region 10 block 79 86 INF INF INF INF units box
region 11 block 85 95 INF INF INF INF units box
region cold block 95 115 INF INF INF INF units box
region 12 block 115 INF INF INF INF INF units box

#---------group------------- 
group fixL region 1 
group hot region hot
group T2 region 2 
 group T3 region 3 
group T4 region 4 
group T5 region 5
group T6 region 6  
group T7 region 7 
group T8 region 8 
group T9 region 9 
group T10 region 10
group T11 region 11 
group cold region cold 
group fixR region 12
region middle union 10 2 3 4 5 6 7 8 9 10 11 
group middle region middle 

pair_style airebo 2.5 
pair_coeff * * CH.airebo C 

#---------initial velocity------------------------ 
velocity all create ${T0} 277 mom yes rot yes 

#---------Equilibrium by NPT--------------------- 
fix 14 all npt temp ${T0} ${T0} ${DT} x 0.0 0.0 ${DT} y 0.0 0.0 ${DT} # z 0.0 0.0 ${DT} 

thermo 10000 
thermo_style custom step atoms temp 
timestep ${timeicrt} 
dump 4 all xyz 10000 ./Initial_equilibrium.xyz 
run ${eqNPT} 

reset_timestep 0
unfix 14 

#-----------Run Loading NVE--------  #-----Hot and Cold----- 
fix 5 all nve 
fix hot hot nvt temp ${TH} ${TH} ${DT} 
fix cold cold nvt temp ${TC} ${TC} ${DT}
fix 3 fixL setforce 0 0 0 
fix 4 fixR setforce 0 0 0 
velocity fixL set 0 0 0 units box 
velocity fixR set 0 0 0 units box 

compute temp1 fixL temp 
compute hot hot temp  
compute temp2 T2 temp 
compute temp3 T3 temp
compute temp4 T4 temp
compute temp5 T5 temp
compute temp6 T6 temp
compute temp7 T7 temp
compute temp8 T8 temp
compute temp9 T9 temp
compute temp10 T10 temp
compute temp11 T11 temp
compute cold cold temp
compute temp12 fixR temp

compute ke middle ke/atom 
compute pe middle pe/atom 
compute stress middle stress/atom NULL virial 
compute J middle heat/flux ke pe stress 
#variable Jx equal c_J[1]/(${Engvol})

fix 6 all ave/time 1 50000 50000 v_Jx c_hot c_temp2 c_temp3 c_temp4 c_temp5 c_temp6 c_temp7 c_temp8 c_temp8 c_temp9 c_temp10 c_temp11 c_cold file Temperature.txt  

thermo 500000 
run 5000000
